50	100	100	100
14	71	77
9	70	90
34	97	68
4	68	83
18	68	83
31	84	66
17	84	87
16	80	82
21	99	96
17	93	79
26	88	86
47	92	93
17	84	81
43	83	67
17	90	86
1	97	93
14	93	94
9	85	84
48	76	79
19	83	82
35	98	89
37	88	75
47	76	97
24	97	69
16	87	97
45	77	81
11	80	77
25	76	67
39	81	84
10	67	97
35	95	80
12	82	95
44	76	97
10	74	79
16	98	90
14	89	97
47	72	93
27	72	96
14	76	76
31	90	82
45	85	90
12	82	71
48	69	96
42	96	99
28	92	92
22	98	99
13	96	80
27	84	85
24	89	76
15	88	97
